p cnf 200 1110
-101 70 0
-101 -88 0
-101 -80 0
-101 52 0
-101 -54 0
-101 -84 0
-101 96 0
-101 -3 0
-101 30 0
-101 36 0
101 -70 88 80 -52 54 84 -96 3 -30 -36 0
-102 46 0
-102 40 0
-102 92 0
-102 42 0
-102 12 0
-102 85 0
-102 89 0
-102 13 0
-102 23 0
-102 -20 0
102 -46 -40 -92 -42 -12 -85 -89 -13 -23 20 0
-103 92 0
-103 60 0
-103 81 0
-103 65 0
-103 80 0
-103 -61 0
-103 -46 0
-103 -44 0
-103 57 0
-103 -82 0
103 -92 -60 -81 -65 -80 61 46 44 -57 82 0
-104 -71 0
-104 32 0
-104 -18 0
-104 -46 0
-104 29 0
-104 48 0
-104 17 0
-104 84 0
-104 -2 0
-104 40 0
104 71 -32 18 46 -29 -48 -17 -84 2 -40 0
-105 -85 0
-105 38 0
-105 -42 0
-105 53 0
-105 67 0
-105 -96 0
-105 19 0
-105 -89 0
-105 -57 0
-105 -26 0
105 85 -38 42 -53 -67 96 -19 89 57 26 0
-106 -37 0
-106 35 0
-106 -17 0
-106 33 0
-106 -14 0
-106 16 0
-106 -74 0
-106 -65 0
-106 -70 0
-106 -91 0
106 37 -35 17 -33 14 -16 74 65 70 91 0
-107 -69 0
-107 43 0
-107 -36 0
-107 -4 0
-107 6 0
-107 9 0
-107 71 0
-107 22 0
-107 76 0
-107 -81 0
107 69 -43 36 4 -6 -9 -71 -22 -76 81 0
-108 85 0
-108 -76 0
-108 -47 0
-108 -65 0
-108 71 0
-108 -87 0
-108 -25 0
-108 -53 0
-108 54 0
-108 -22 0
108 -85 76 47 65 -71 87 25 53 -54 22 0
-109 44 0
-109 -27 0
-109 75 0
-109 36 0
-109 37 0
-109 -33 0
-109 -39 0
-109 -53 0
-109 -32 0
-109 30 0
109 -44 27 -75 -36 -37 33 39 53 32 -30 0
-110 -36 0
-110 -1 0
-110 -61 0
-110 85 0
-110 -2 0
-110 -23 0
-110 8 0
-110 -64 0
-110 30 0
-110 86 0
110 36 1 61 -85 2 23 -8 64 -30 -86 0
101 102 103 104 105 106 107 108 109 110 0
-111 -61 0
-111 44 0
-111 -39 0
-111 94 0
-111 -70 0
-111 10 0
-111 32 0
-111 -8 0
-111 -73 0
-111 76 0
111 61 -44 39 -94 70 -10 -32 8 73 -76 0
-112 -67 0
-112 -36 0
-112 -48 0
-112 -41 0
-112 -28 0
-112 90 0
-112 78 0
-112 8 0
-112 84 0
-112 17 0
112 67 36 48 41 28 -90 -78 -8 -84 -17 0
-113 52 0
-113 65 0
-113 -66 0
-113 -44 0
-113 -20 0
-113 -51 0
-113 97 0
-113 63 0
-113 49 0
-113 100 0
113 -52 -65 66 44 20 51 -97 -63 -49 -100 0
-114 -19 0
-114 18 0
-114 24 0
-114 -46 0
-114 80 0
-114 27 0
-114 -60 0
-114 -9 0
-114 47 0
-114 -40 0
114 19 -18 -24 46 -80 -27 60 9 -47 40 0
-115 19 0
-115 -59 0
-115 7 0
-115 -42 0
-115 -38 0
-115 -98 0
-115 -27 0
-115 11 0
-115 -68 0
-115 -8 0
115 -19 59 -7 42 38 98 27 -11 68 8 0
-116 -70 0
-116 13 0
-116 -27 0
-116 77 0
-116 99 0
-116 -48 0
-116 -17 0
-116 11 0
-116 -46 0
-116 92 0
116 70 -13 27 -77 -99 48 17 -11 46 -92 0
-117 32 0
-117 -61 0
-117 -12 0
-117 64 0
-117 -26 0
-117 -93 0
-117 79 0
-117 27 0
-117 97 0
-117 -37 0
117 -32 61 12 -64 26 93 -79 -27 -97 37 0
-118 71 0
-118 -41 0
-118 67 0
-118 13 0
-118 -97 0
-118 -11 0
-118 43 0
-118 83 0
-118 -3 0
-118 -30 0
118 -71 41 -67 -13 97 11 -43 -83 3 30 0
-119 -98 0
-119 -44 0
-119 -73 0
-119 36 0
-119 94 0
-119 58 0
-119 10 0
-119 -35 0
-119 21 0
-119 12 0
119 98 44 73 -36 -94 -58 -10 35 -21 -12 0
-120 -28 0
-120 71 0
-120 26 0
-120 46 0
-120 -19 0
-120 96 0
-120 75 0
-120 35 0
-120 -18 0
-120 24 0
120 28 -71 -26 -46 19 -96 -75 -35 18 -24 0
111 112 113 114 115 116 117 118 119 120 0
-121 -79 0
-121 -15 0
-121 77 0
-121 96 0
-121 -3 0
-121 -84 0
-121 49 0
-121 57 0
-121 51 0
-121 -48 0
121 79 15 -77 -96 3 84 -49 -57 -51 48 0
-122 -32 0
-122 -64 0
-122 -19 0
-122 -34 0
-122 -31 0
-122 -4 0
-122 39 0
-122 -84 0
-122 55 0
-122 30 0
122 32 64 19 34 31 4 -39 84 -55 -30 0
-123 71 0
-123 -82 0
-123 65 0
-123 -87 0
-123 23 0
-123 57 0
-123 -47 0
-123 46 0
-123 99 0
-123 84 0
123 -71 82 -65 87 -23 -57 47 -46 -99 -84 0
-124 8 0
-124 15 0
-124 -75 0
-124 22 0
-124 -68 0
-124 -80 0
-124 47 0
-124 -93 0
-124 33 0
-124 36 0
124 -8 -15 75 -22 68 80 -47 93 -33 -36 0
-125 87 0
-125 8 0
-125 -59 0
-125 38 0
-125 -28 0
-125 -90 0
-125 80 0
-125 -34 0
-125 33 0
-125 31 0
125 -87 -8 59 -38 28 90 -80 34 -33 -31 0
-126 -12 0
-126 7 0
-126 26 0
-126 -54 0
-126 -18 0
-126 70 0
-126 92 0
-126 21 0
-126 32 0
-126 69 0
126 12 -7 -26 54 18 -70 -92 -21 -32 -69 0
-127 67 0
-127 -94 0
-127 -23 0
-127 -84 0
-127 -18 0
-127 41 0
-127 -100 0
-127 19 0
-127 58 0
-127 7 0
127 -67 94 23 84 18 -41 100 -19 -58 -7 0
-128 23 0
-128 33 0
-128 94 0
-128 -64 0
-128 -11 0
-128 66 0
-128 27 0
-128 37 0
-128 -28 0
-128 -53 0
128 -23 -33 -94 64 11 -66 -27 -37 28 53 0
-129 58 0
-129 -66 0
-129 -23 0
-129 11 0
-129 17 0
-129 29 0
-129 77 0
-129 -2 0
-129 -5 0
-129 -49 0
129 -58 66 23 -11 -17 -29 -77 2 5 49 0
-130 -27 0
-130 -82 0
-130 -22 0
-130 55 0
-130 -3 0
-130 -23 0
-130 96 0
-130 32 0
-130 65 0
-130 -24 0
130 27 82 22 -55 3 23 -96 -32 -65 24 0
121 122 123 124 125 126 127 128 129 130 0
-131 -88 0
-131 -68 0
-131 63 0
-131 -98 0
-131 31 0
-131 32 0
-131 7 0
-131 28 0
-131 -15 0
-131 82 0
131 88 68 -63 98 -31 -32 -7 -28 15 -82 0
-132 93 0
-132 54 0
-132 33 0
-132 97 0
-132 35 0
-132 67 0
-132 7 0
-132 -75 0
-132 89 0
-132 61 0
132 -93 -54 -33 -97 -35 -67 -7 75 -89 -61 0
-133 -73 0
-133 10 0
-133 -50 0
-133 -34 0
-133 -67 0
-133 58 0
-133 33 0
-133 61 0
-133 -71 0
-133 -96 0
133 73 -10 50 34 67 -58 -33 -61 71 96 0
-134 -69 0
-134 -63 0
-134 -48 0
-134 -52 0
-134 81 0
-134 -18 0
-134 -21 0
-134 -39 0
-134 4 0
-134 99 0
134 69 63 48 52 -81 18 21 39 -4 -99 0
-135 -5 0
-135 -61 0
-135 1 0
-135 21 0
-135 25 0
-135 -36 0
-135 15 0
-135 -55 0
-135 -50 0
-135 71 0
135 5 61 -1 -21 -25 36 -15 55 50 -71 0
-136 -34 0
-136 6 0
-136 -26 0
-136 -39 0
-136 56 0
-136 12 0
-136 15 0
-136 -53 0
-136 28 0
-136 -78 0
136 34 -6 26 39 -56 -12 -15 53 -28 78 0
-137 -11 0
-137 -33 0
-137 -66 0
-137 94 0
-137 72 0
-137 -76 0
-137 -48 0
-137 37 0
-137 -89 0
-137 -83 0
137 11 33 66 -94 -72 76 48 -37 89 83 0
-138 34 0
-138 77 0
-138 27 0
-138 25 0
-138 -90 0
-138 -39 0
-138 -92 0
-138 72 0
-138 -53 0
-138 58 0
138 -34 -77 -27 -25 90 39 92 -72 53 -58 0
-139 79 0
-139 67 0
-139 -99 0
-139 -61 0
-139 94 0
-139 89 0
-139 -70 0
-139 -69 0
-139 90 0
-139 -48 0
139 -79 -67 99 61 -94 -89 70 69 -90 48 0
-140 -8 0
-140 -85 0
-140 6 0
-140 -63 0
-140 -76 0
-140 3 0
-140 15 0
-140 44 0
-140 -36 0
-140 53 0
140 8 85 -6 63 76 -3 -15 -44 36 -53 0
131 132 133 134 135 136 137 138 139 140 0
-141 79 0
-141 -76 0
-141 -92 0
-141 26 0
-141 -66 0
-141 -46 0
-141 -8 0
-141 -2 0
-141 17 0
-141 -15 0
141 -79 76 92 -26 66 46 8 2 -17 15 0
-142 99 0
-142 -95 0
-142 61 0
-142 -3 0
-142 67 0
-142 -15 0
-142 40 0
-142 16 0
-142 -8 0
-142 -59 0
142 -99 95 -61 3 -67 15 -40 -16 8 59 0
-143 -14 0
-143 -96 0
-143 1 0
-143 74 0
-143 66 0
-143 78 0
-143 92 0
-143 63 0
-143 20 0
-143 13 0
143 14 96 -1 -74 -66 -78 -92 -63 -20 -13 0
-144 77 0
-144 19 0
-144 53 0
-144 71 0
-144 -27 0
-144 96 0
-144 -61 0
-144 -15 0
-144 -26 0
-144 -43 0
144 -77 -19 -53 -71 27 -96 61 15 26 43 0
-145 75 0
-145 63 0
-145 -90 0
-145 -86 0
-145 84 0
-145 -18 0
-145 -34 0
-145 -98 0
-145 -25 0
-145 67 0
145 -75 -63 90 86 -84 18 34 98 25 -67 0
-146 -70 0
-146 -26 0
-146 -100 0
-146 -3 0
-146 59 0
-146 -53 0
-146 74 0
-146 -30 0
-146 50 0
-146 32 0
146 70 26 100 3 -59 53 -74 30 -50 -32 0
-147 -51 0
-147 22 0
-147 89 0
-147 -53 0
-147 -55 0
-147 -62 0
-147 -80 0
-147 97 0
-147 70 0
-147 -68 0
147 51 -22 -89 53 55 62 80 -97 -70 68 0
-148 -20 0
-148 18 0
-148 13 0
-148 27 0
-148 -31 0
-148 -44 0
-148 79 0
-148 -77 0
-148 62 0
-148 -60 0
148 20 -18 -13 -27 31 44 -79 77 -62 60 0
-149 -84 0
-149 -25 0
-149 85 0
-149 72 0
-149 -81 0
-149 -70 0
-149 38 0
-149 79 0
-149 -69 0
-149 2 0
149 84 25 -85 -72 81 70 -38 -79 69 -2 0
-150 -98 0
-150 -87 0
-150 -44 0
-150 -83 0
-150 -5 0
-150 -26 0
-150 96 0
-150 53 0
-150 34 0
-150 -71 0
150 98 87 44 83 5 26 -96 -53 -34 71 0
141 142 143 144 145 146 147 148 149 150 0
-151 -2 0
-151 78 0
-151 -11 0
-151 9 0
-151 22 0
-151 -84 0
-151 90 0
-151 -32 0
-151 37 0
-151 -67 0
151 2 -78 11 -9 -22 84 -90 32 -37 67 0
-152 10 0
-152 -28 0
-152 -5 0
-152 55 0
-152 61 0
-152 7 0
-152 -49 0
-152 -73 0
-152 24 0
-152 27 0
152 -10 28 5 -55 -61 -7 49 73 -24 -27 0
-153 -46 0
-153 -39 0
-153 3 0
-153 80 0
-153 -66 0
-153 74 0
-153 -12 0
-153 25 0
-153 72 0
-153 38 0
153 46 39 -3 -80 66 -74 12 -25 -72 -38 0
-154 99 0
-154 -8 0
-154 18 0
-154 89 0
-154 -95 0
-154 81 0
-154 -21 0
-154 34 0
-154 -12 0
-154 -82 0
154 -99 8 -18 -89 95 -81 21 -34 12 82 0
-155 32 0
-155 56 0
-155 -55 0
-155 -13 0
-155 93 0
-155 -47 0
-155 28 0
-155 40 0
-155 -14 0
-155 57 0
155 -32 -56 55 13 -93 47 -28 -40 14 -57 0
-156 83 0
-156 -23 0
-156 81 0
-156 -51 0
-156 25 0
-156 93 0
-156 -63 0
-156 55 0
-156 27 0
-156 99 0
156 -83 23 -81 51 -25 -93 63 -55 -27 -99 0
-157 44 0
-157 -52 0
-157 36 0
-157 -7 0
-157 85 0
-157 -65 0
-157 -17 0
-157 14 0
-157 60 0
-157 84 0
157 -44 52 -36 7 -85 65 17 -14 -60 -84 0
-158 -83 0
-158 -42 0
-158 -3 0
-158 -12 0
-158 97 0
-158 -100 0
-158 73 0
-158 -11 0
-158 -65 0
-158 30 0
158 83 42 3 12 -97 100 -73 11 65 -30 0
-159 98 0
-159 21 0
-159 11 0
-159 37 0
-159 -59 0
-159 35 0
-159 77 0
-159 -44 0
-159 43 0
-159 -92 0
159 -98 -21 -11 -37 59 -35 -77 44 -43 92 0
-160 -79 0
-160 -35 0
-160 -71 0
-160 -46 0
-160 13 0
-160 -33 0
-160 38 0
-160 81 0
-160 -48 0
-160 93 0
160 79 35 71 46 -13 33 -38 -81 48 -93 0
151 152 153 154 155 156 157 158 159 160 0
-161 34 0
-161 -47 0
-161 86 0
-161 91 0
-161 -60 0
-161 37 0
-161 -62 0
-161 100 0
-161 75 0
-161 24 0
161 -34 47 -86 -91 60 -37 62 -100 -75 -24 0
-162 -56 0
-162 -2 0
-162 46 0
-162 -75 0
-162 33 0
-162 31 0
-162 -83 0
-162 4 0
-162 -43 0
-162 51 0
162 56 2 -46 75 -33 -31 83 -4 43 -51 0
-163 83 0
-163 22 0
-163 -65 0
-163 12 0
-163 62 0
-163 -8 0
-163 78 0
-163 -49 0
-163 -84 0
-163 -28 0
163 -83 -22 65 -12 -62 8 -78 49 84 28 0
-164 9 0
-164 70 0
-164 -40 0
-164 72 0
-164 -93 0
-164 -61 0
-164 8 0
-164 -71 0
-164 -79 0
-164 -100 0
164 -9 -70 40 -72 93 61 -8 71 79 100 0
-165 23 0
-165 -40 0
-165 70 0
-165 8 0
-165 -37 0
-165 -17 0
-165 93 0
-165 59 0
-165 -78 0
-165 26 0
165 -23 40 -70 -8 37 17 -93 -59 78 -26 0
-166 -69 0
-166 62 0
-166 3 0
-166 79 0
-166 -2 0
-166 -91 0
-166 -78 0
-166 -13 0
-166 -14 0
-166 -72 0
166 69 -62 -3 -79 2 91 78 13 14 72 0
-167 -83 0
-167 -36 0
-167 -78 0
-167 94 0
-167 77 0
-167 -69 0
-167 -98 0
-167 45 0
-167 72 0
-167 74 0
167 83 36 78 -94 -77 69 98 -45 -72 -74 0
-168 -60 0
-168 94 0
-168 -37 0
-168 -73 0
-168 90 0
-168 64 0
-168 -75 0
-168 56 0
-168 -82 0
-168 -58 0
168 60 -94 37 73 -90 -64 75 -56 82 58 0
-169 -92 0
-169 27 0
-169 77 0
-169 -28 0
-169 -66 0
-169 60 0
-169 53 0
-169 68 0
-169 10 0
-169 -85 0
169 92 -27 -77 28 66 -60 -53 -68 -10 85 0
-170 -80 0
-170 -5 0
-170 -16 0
-170 -97 0
-170 75 0
-170 15 0
-170 96 0
-170 79 0
-170 32 0
-170 52 0
170 80 5 16 97 -75 -15 -96 -79 -32 -52 0
161 162 163 164 165 166 167 168 169 170 0
-171 82 0
-171 -2 0
-171 -13 0
-171 48 0
-171 -15 0
-171 -100 0
-171 -99 0
-171 36 0
-171 89 0
-171 9 0
171 -82 2 13 -48 15 100 99 -36 -89 -9 0
-172 -56 0
-172 82 0
-172 -52 0
-172 -21 0
-172 32 0
-172 98 0
-172 25 0
-172 -95 0
-172 42 0
-172 -68 0
172 56 -82 52 21 -32 -98 -25 95 -42 68 0
-173 -28 0
-173 -23 0
-173 -61 0
-173 31 0
-173 -48 0
-173 38 0
-173 -80 0
-173 83 0
-173 30 0
-173 -14 0
173 28 23 61 -31 48 -38 80 -83 -30 14 0
-174 30 0
-174 -27 0
-174 69 0
-174 17 0
-174 5 0
-174 -31 0
-174 -82 0
-174 73 0
-174 -34 0
-174 -66 0
174 -30 27 -69 -17 -5 31 82 -73 34 66 0
-175 -58 0
-175 99 0
-175 -35 0
-175 20 0
-175 31 0
-175 83 0
-175 -87 0
-175 -9 0
-175 86 0
-175 69 0
175 58 -99 35 -20 -31 -83 87 9 -86 -69 0
-176 -61 0
-176 -56 0
-176 35 0
-176 -15 0
-176 45 0
-176 -88 0
-176 -59 0
-176 52 0
-176 -49 0
-176 -70 0
176 61 56 -35 15 -45 88 59 -52 49 70 0
-177 -68 0
-177 65 0
-177 -13 0
-177 -92 0
-177 52 0
-177 19 0
-177 -59 0
-177 55 0
-177 -29 0
-177 -27 0
177 68 -65 13 92 -52 -19 59 -55 29 27 0
-178 51 0
-178 -38 0
-178 14 0
-178 1 0
-178 -99 0
-178 -60 0
-178 21 0
-178 69 0
-178 87 0
-178 -37 0
178 -51 38 -14 -1 99 60 -21 -69 -87 37 0
-179 -70 0
-179 -48 0
-179 45 0
-179 46 0
-179 90 0
-179 -23 0
-179 -38 0
-179 99 0
-179 84 0
-179 37 0
179 70 48 -45 -46 -90 23 38 -99 -84 -37 0
-180 -39 0
-180 31 0
-180 -25 0
-180 -97 0
-180 -77 0
-180 44 0
-180 61 0
-180 -14 0
-180 41 0
-180 -78 0
180 39 -31 25 97 77 -44 -61 14 -41 78 0
171 172 173 174 175 176 177 178 179 180 0
-181 -100 0
-181 -32 0
-181 -24 0
-181 17 0
-181 42 0
-181 81 0
-181 -88 0
-181 -1 0
-181 59 0
-181 18 0
181 100 32 24 -17 -42 -81 88 1 -59 -18 0
-182 56 0
-182 87 0
-182 -82 0
-182 65 0
-182 48 0
-182 -43 0
-182 -37 0
-182 36 0
-182 86 0
-182 63 0
182 -56 -87 82 -65 -48 43 37 -36 -86 -63 0
-183 10 0
-183 -38 0
-183 -20 0
-183 -28 0
-183 50 0
-183 89 0
-183 -86 0
-183 -93 0
-183 -77 0
-183 8 0
183 -10 38 20 28 -50 -89 86 93 77 -8 0
-184 92 0
-184 77 0
-184 -47 0
-184 58 0
-184 2 0
-184 -17 0
-184 80 0
-184 -1 0
-184 -66 0
-184 46 0
184 -92 -77 47 -58 -2 17 -80 1 66 -46 0
-185 40 0
-185 -76 0
-185 43 0
-185 -67 0
-185 -63 0
-185 37 0
-185 -21 0
-185 9 0
-185 74 0
-185 87 0
185 -40 76 -43 67 63 -37 21 -9 -74 -87 0
-186 22 0
-186 -76 0
-186 -75 0
-186 -44 0
-186 63 0
-186 36 0
-186 -52 0
-186 -11 0
-186 80 0
-186 73 0
186 -22 76 75 44 -63 -36 52 11 -80 -73 0
-187 13 0
-187 74 0
-187 -62 0
-187 26 0
-187 -49 0
-187 17 0
-187 -80 0
-187 -94 0
-187 100 0
-187 93 0
187 -13 -74 62 -26 49 -17 80 94 -100 -93 0
-188 97 0
-188 62 0
-188 72 0
-188 -26 0
-188 -20 0
-188 -44 0
-188 -22 0
-188 77 0
-188 -84 0
-188 -81 0
188 -97 -62 -72 26 20 44 22 -77 84 81 0
-189 -57 0
-189 -6 0
-189 43 0
-189 -35 0
-189 79 0
-189 -66 0
-189 -70 0
-189 -27 0
-189 86 0
-189 1 0
189 57 6 -43 35 -79 66 70 27 -86 -1 0
-190 63 0
-190 44 0
-190 28 0
-190 89 0
-190 -94 0
-190 53 0
-190 -2 0
-190 52 0
-190 80 0
-190 -55 0
190 -63 -44 -28 -89 94 -53 2 -52 -80 55 0
181 182 183 184 185 186 187 188 189 190 0
-191 38 0
-191 -93 0
-191 4 0
-191 30 0
-191 -35 0
-191 50 0
-191 -18 0
-191 -34 0
-191 -26 0
-191 3 0
191 -38 93 -4 -30 35 -50 18 34 26 -3 0
-192 13 0
-192 -12 0
-192 72 0
-192 67 0
-192 -16 0
-192 -61 0
-192 36 0
-192 -40 0
-192 49 0
-192 26 0
192 -13 12 -72 -67 16 61 -36 40 -49 -26 0
-193 -20 0
-193 -80 0
-193 -52 0
-193 -42 0
-193 -25 0
-193 -79 0
-193 1 0
-193 -10 0
-193 50 0
-193 -51 0
193 20 80 52 42 25 79 -1 10 -50 51 0
-194 5 0
-194 99 0
-194 25 0
-194 -79 0
-194 97 0
-194 3 0
-194 60 0
-194 -68 0
-194 95 0
-194 -100 0
194 -5 -99 -25 79 -97 -3 -60 68 -95 100 0
-195 -92 0
-195 50 0
-195 14 0
-195 39 0
-195 -73 0
-195 58 0
-195 33 0
-195 78 0
-195 -20 0
-195 -69 0
195 92 -50 -14 -39 73 -58 -33 -78 20 69 0
-196 28 0
-196 9 0
-196 64 0
-196 -68 0
-196 -93 0
-196 36 0
-196 -21 0
-196 -2 0
-196 72 0
-196 46 0
196 -28 -9 -64 68 93 -36 21 2 -72 -46 0
-197 3 0
-197 -1 0
-197 56 0
-197 27 0
-197 -70 0
-197 -84 0
-197 18 0
-197 -63 0
-197 -19 0
-197 -97 0
197 -3 1 -56 -27 70 84 -18 63 19 97 0
-198 100 0
-198 -45 0
-198 26 0
-198 44 0
-198 -48 0
-198 84 0
-198 -50 0
-198 -30 0
-198 -92 0
-198 -89 0
198 -100 45 -26 -44 48 -84 50 30 92 89 0
-199 -56 0
-199 43 0
-199 -64 0
-199 -94 0
-199 -3 0
-199 19 0
-199 -51 0
-199 -27 0
-199 80 0
-199 48 0
199 56 -43 64 94 3 -19 51 27 -80 -48 0
-200 -44 0
-200 93 0
-200 -18 0
-200 -34 0
-200 11 0
-200 5 0
-200 -99 0
-200 37 0
-200 97 0
-200 85 0
200 44 -93 18 34 -11 -5 99 -37 -97 -85 0
191 192 193 194 195 196 197 198 199 200 0
